NAME: kroD100
COMMENT: Local search tour for kroD100 (25003.718715461768)
TYPE: TOUR
DIMENSION: 100
TOUR_SECTION: 1 50 90 17 94 32 97 98 49 70 89 11 23 42 22 58 29 36 67 75 7 74 61 46 52 8 66 38 34 81 27 24 84 69 76 80 78 72 57 31 99 45 33 68 14 65 86 96 85 18 82 12 28 56 95 21 47 25 20 9 10 26 87 55 92 48 2 30 100 19 37 51 35 62 53 60 44 93 4 71 43 5 3 83 40 6 59 64 16 77 91 54 63 15 39 73 41 88 79 13 -1
EOF